unknown
(model
; cardinality of BoundSet is 2
(declare-sort BoundSet 0)
; rep: @uc_BoundSet_0
; rep: @uc_BoundSet_1
(declare-sort UnboundSet 0)
(define-fun IsSmall ((BOUND_VARIABLE_378 BoundSet)) Bool true)
(define-fun IsOnPavedPath ((BOUND_VARIABLE_378 BoundSet)) Bool true)
(define-fun IsA ((BOUND_VARIABLE_378 BoundSet)) Bool false)
(define-fun IsConsequence ((BOUND_VARIABLE_378 BoundSet)) Bool false)
)
sat
(model
; cardinality of BoundSet is 1
(declare-sort BoundSet 0)
; rep: @uc_BoundSet_0
(declare-sort UnboundSet 0)
(define-fun IsSmall ((BOUND_VARIABLE_410 BoundSet)) Bool true)
(define-fun IsOnPavedPath ((BOUND_VARIABLE_410 BoundSet)) Bool true)
(define-fun IsA ((BOUND_VARIABLE_410 BoundSet)) Bool false)
(define-fun IsConsequence ((BOUND_VARIABLE_410 BoundSet)) Bool false)
)
